1
150
62
20 3
21 1
22 1
23 1
24 1
26 2
27 1
28 1
29 1
30 3
31 3
33 1
34 3
35 1
36 1
39 2
40 1
41 2
42 1
43 1
45 3
47 1
49 2
52 2
53 1
54 2
55 1
56 1
57 3
58 1
59 2
60 2
62 1
64 1
65 5
67 1
68 2
69 1
71 1
72 4
73 1
74 1
75 1
79 1
80 1
81 1
82 3
83 1
84 1
85 1
86 1
87 1
88 1
90 1
91 1
92 1
94 3
96 2
97 1
98 2
99 2
100 4
